Sr4 Ti12 O26
1.0
0.000000 14.736662 0.000000
3.922696 0.000000 0.000000
0.000000 -1.383340 -9.153341
Sr Ti O
4 12 26
direct
0.548900 0.000000 0.778966
0.951100 0.500000 0.221034
0.048900 0.500000 0.778966
0.451100 0.000000 0.221034
0.756590 0.000000 0.230411
0.743410 0.500000 0.769589
0.256590 0.500000 0.230411
0.243410 0.000000 0.769589
0.877075 0.000000 0.904766
0.622925 0.500000 0.095234
0.835648 0.000000 0.558835
0.664352 0.500000 0.441165
0.377075 0.500000 0.904766
0.122925 0.000000 0.095234
0.335648 0.500000 0.558835
0.164352 0.000000 0.441165
0.000000 0.000000 0.000000
0.756063 0.000000 0.752243
0.743937 0.500000 0.247757
0.935018 0.000000 0.702061
0.564982 0.500000 0.297939
0.697924 0.000000 0.430322
0.802076 0.500000 0.569678
0.875521 0.000000 0.382906
0.624479 0.500000 0.617094
0.627713 0.000000 0.113841
0.872287 0.500000 0.886159
0.832624 0.000000 0.088848
0.667376 0.500000 0.911152
0.500000 0.500000 0.000000
0.256063 0.500000 0.752243
0.243937 0.000000 0.247757
0.435018 0.500000 0.702061
0.064982 0.000000 0.297939
0.197924 0.500000 0.430322
0.302076 0.000000 0.569678
0.375521 0.500000 0.382906
0.124479 0.000000 0.617094
0.127713 0.500000 0.113841
0.372287 0.000000 0.886159
0.332624 0.500000 0.088848
0.167376 0.000000 0.911152
