Sr4 Ti2 O8
1.0
3.927738 0.000000 0.000000
0.000000 3.927738 0.000000
0.000000 0.000000 12.682804
Sr Ti O
4 2 8
direct
0.500000 0.500000 0.145289
0.000000 0.000000 0.354711
0.000000 0.000000 0.645289
0.500000 0.500000 0.854711
0.000000 0.000000 0.000000
0.500000 0.500000 0.500000
0.500000 0.500000 0.341775
0.000000 0.000000 0.158225
0.000000 0.500000 0.000000
0.500000 0.000000 0.000000
0.000000 0.000000 0.841775
0.500000 0.500000 0.658225
0.500000 0.000000 0.500000
0.000000 0.500000 0.500000
