Sr6 Ti4 O14
1.0
3.940908 0.000000 0.000000
0.000000 3.940908 0.000000
0.000000 0.000000 20.511886
Sr Ti O
6 4 14
direct
0.000000 0.000000 0.315737
0.500000 0.500000 0.000000
0.500000 0.500000 0.184263
0.500000 0.500000 0.815737
0.000000 0.000000 0.500000
0.000000 0.000000 0.684263
0.000000 0.000000 0.097768
0.500000 0.500000 0.402232
0.500000 0.500000 0.597768
0.000000 0.000000 0.902232
0.500000 0.000000 0.403661
0.500000 0.500000 0.306192
0.000000 0.000000 0.000000
0.500000 0.000000 0.096339
0.000000 0.500000 0.096339
0.000000 0.500000 0.403661
0.000000 0.000000 0.193808
0.000000 0.500000 0.903661
0.000000 0.000000 0.806192
0.500000 0.500000 0.500000
0.000000 0.500000 0.596339
0.500000 0.000000 0.596339
0.500000 0.000000 0.903661
0.500000 0.500000 0.693808
