Sr2 Ti22 O40
1.0
7.184002 0.000000 0.000000
-1.829868 7.486196 0.000000
-0.633531 -0.222927 13.263191
Sr Ti O
2 22 40
direct
0.461381 0.812417 0.761153
0.538619 0.187583 0.238847
0.681940 0.921729 0.998541
0.355282 0.635276 0.286570
0.678318 0.066512 0.563016
0.321682 0.933488 0.436984
0.323690 0.579144 0.512006
0.336695 0.432624 0.930134
0.318321 0.711795 0.082956
0.663305 0.567376 0.069866
0.318060 0.078271 0.001459
0.676310 0.420856 0.487994
0.681679 0.288205 0.917044
0.644718 0.364724 0.713430
0.034735 0.430913 0.708450
0.697155 0.796545 0.415886
0.994078 0.704226 0.873566
0.981875 0.792792 0.632862
0.302845 0.203455 0.584114
0.008517 0.929237 0.203322
0.965265 0.569087 0.291550
0.991483 0.070763 0.796678
0.005922 0.295774 0.126434
0.018125 0.207208 0.367138
0.502771 0.317988 0.033241
0.850324 0.597452 0.732036
0.877655 0.116761 0.233427
0.841305 0.263626 0.799359
0.503176 0.821858 0.532147
0.832741 0.818828 0.096796
0.515253 0.045333 0.904586
0.495066 0.594792 0.174937
0.849188 0.766617 0.305390
0.489422 0.452880 0.603210
0.174656 0.669958 0.404672
0.168927 0.824966 0.976767
0.149676 0.402548 0.267964
0.826967 0.535250 0.952184
0.833997 0.046199 0.447143
0.831073 0.175034 0.023233
0.173033 0.464750 0.047816
0.496824 0.178142 0.467853
0.504934 0.405208 0.825063
0.497229 0.682012 0.966759
0.158695 0.736374 0.200641
0.150812 0.233383 0.694610
0.830700 0.448537 0.167502
0.175821 0.044170 0.333381
0.175671 0.622887 0.627164
0.166003 0.953801 0.552857
0.510578 0.547120 0.396790
0.824329 0.377113 0.372836
0.824179 0.955830 0.666619
0.823018 0.671861 0.520610
0.175410 0.116698 0.124414
0.167259 0.181172 0.903204
0.484747 0.954667 0.095414
0.122345 0.883239 0.766573
0.825344 0.330042 0.595328
0.495622 0.879057 0.332189
0.176982 0.328139 0.479390
0.824590 0.883302 0.875586
0.504378 0.120943 0.667811
0.169300 0.551463 0.832498
